12
benzene
H      -0.00000000      2.47150000      0.00000000
C      -0.00000000      1.39160000      0.00000000
C      -1.20516100      0.69580000      0.00000000
H      -2.14038200      1.23575000      0.00000000
C      -1.20516100     -0.69580000      0.00000000
H      -2.14038200     -1.23575000      0.00000000
C       0.00000000     -1.39160000     -0.00000000
H       0.00000000     -2.47150000     -0.00000000
C       1.20516100     -0.69580000     -0.00000000
H       2.14038200     -1.23575000     -0.00000000
C       1.20516100      0.69580000     -0.00000000
H       2.14038200      1.23575000     -0.00000000
