16
Cubane B3/SVP
C       0.78290000      0.78290000      0.78290000
C      -0.78290000      0.78290000      0.78290000
C      -0.78290000      0.78290000     -0.78290000
C       0.78290000      0.78290000     -0.78290000
C       0.78290000     -0.78290000      0.78290000
C       0.78290000     -0.78290000     -0.78290000
C      -0.78290000     -0.78290000     -0.78290000
C      -0.78290000     -0.78290000      0.78290000
H       1.40970000      1.40970000      1.40970000
H      -1.40970000      1.40970000      1.40970000
H      -1.40970000      1.40970000     -1.40970000
H       1.40970000      1.40970000     -1.40970000
H       1.40970000     -1.40970000      1.40970000
H       1.40970000     -1.40970000     -1.40970000
H      -1.40970000     -1.40970000     -1.40970000
H      -1.40970000     -1.40970000      1.40970000
