21
Ferrocene NIST 3D idealized D5h
C       0.00000000      1.21460100      1.65427800
Fe      0.00000000      0.00000000      0.00000000
C      -1.15515500      0.37533200      1.65427800
C       1.15515500      0.37533200      1.65427800
C       0.71392500     -0.98263300      1.65427800
C      -0.71392500     -0.98263300      1.65427800
C       0.00000000      1.21460100     -1.65427800
C      -1.15515500      0.37533200     -1.65427800
C      -0.71392500     -0.98263300     -1.65427800
C       0.71392500     -0.98263300     -1.65427800
C       1.15515500      0.37533200     -1.65427800
H       0.00000000      2.29689300      1.65427800
H      -2.18447500      0.70977900      1.65427800
H       2.18447500      0.70977900      1.65427800
H       1.35008000     -1.85822500      1.65427800
H      -1.35008000     -1.85822500      1.65427800
H       0.00000000      2.29689300     -1.65427800
H      -2.18447500      0.70977900     -1.65427800
H      -1.35008000     -1.85822500     -1.65427800
H       1.35008000     -1.85822500     -1.65427800
H       2.18447500      0.70977900     -1.65427800
