26
Pyrene
C       2.82420200      1.20820400      0.00000000
C       3.51392400      0.00000000      0.00000000
C       2.82420200     -1.20820400      0.00000000
C       1.42410000     -1.23115000      0.00000000
C       0.71228200      0.00000000      0.00000000
C       1.42410000      1.23115000      0.00000000
C      -0.71228200     -0.00000000      0.00000000
C      -1.42410000     -1.23115000      0.00000000
C      -0.67945000     -2.45850200      0.00000000
C       0.67945000     -2.45850200      0.00000000
C      -1.42410000      1.23115000      0.00000000
C      -2.82420200      1.20820400      0.00000000
C      -3.51392400     -0.00000000      0.00000000
C      -2.82420200     -1.20820400      0.00000000
C       0.67945000      2.45850200      0.00000000
C      -0.67945000      2.45850200      0.00000000
H       1.22744400      3.39494000      0.00000000
H      -1.22744400      3.39494000      0.00000000
H      -3.36803500      2.14690700      0.00000000
H      -4.59774700      0.00000000      0.00000000
H      -3.36803500     -2.14690700      0.00000000
H      -1.22744400     -3.39494000      0.00000000
H       1.22744400     -3.39494000      0.00000000
H       4.59774700      0.00000000      0.00000000
H       3.36803500     -2.14690700      0.00000000
H       3.36803500      2.14690700      0.00000000
