17
Saccharin planar fused-ring regression fixture
C  -0.87830900   0.66303300   0.00000000
C  -0.32162100  -0.60603500   0.00000000
C  -1.09324100  -1.75602900   0.00000000
C  -2.47783100  -1.58987000   0.00000000
C  -3.05107900  -0.31597600   0.00000000
C  -2.25698900   0.82663600   0.00000000
H  -0.64268900  -2.73789200   0.00000000
H  -3.11546000  -2.46265300   0.00000000
H  -4.12766500  -0.21992000   0.00000000
H  -2.68071400   1.82108100   0.00000000
H   2.24208700   1.68944800   0.00000000
N   1.39416500   1.14465000   0.00000000
S   1.43210400  -0.52310600   0.00000000
O   1.97479800  -0.99764100  -1.22837100
O   1.97479800  -0.99764100   1.22837100
C   0.14286800   1.74503500   0.00000000
O  -0.05372900   2.93430100   0.00000000
