27
MORPHEUS semiexperimental equilibrium geometry
C       0.00015427      0.00035596     -0.00015744
C      -0.00002177      0.00069883      1.52180422
C      -0.00054296      1.46495387      1.95784574
C      -0.01048111      2.19117635      0.60885179
C      -1.41687943      1.99929115      0.02103833
C      -1.42791744      0.49470979     -0.35149243
C       0.85918928      1.26385206     -0.28008742
O      -0.00798922     -0.96364620      2.24543096
C       0.39737893     -1.31289771     -0.62463650
H      -0.86816078      1.67963585      2.58122210
H       0.88947043      1.66371731      2.55334556
H       0.32327921      3.22707403      0.65346949
C       0.89222895      1.67956657     -1.74557500
C       2.30265580      1.12261868      0.19944431
H      -1.55927206      2.63383871     -0.85130803
H      -2.18863857      2.25377781      0.74616619
H      -2.18583967     -0.07169724      0.18914597
H      -1.61187304      0.34090530     -1.41414701
H       1.40938200     -1.59703593     -0.33740324
H       0.34709045     -1.25761202     -1.71231239
H      -0.26906412     -2.10705538     -0.29008366
H       2.38663039      0.72360540      1.20882548
H       2.80515863      2.09087283      0.17826770
H       2.85446764      0.45204246     -0.45966092
H      -0.09419252      1.84123646     -2.17209031
H       1.45638814      0.95463791     -2.33322122
H       1.39397621      2.64369260     -1.84543799
